50
    1   274   274
    2   447   447
    3    71    71
    4   483   483
    5    61    61
    6   425   425
    7   158   158
    8   109   109
    9    35    35
   10    14    14
   11   292   292
   12   498   498
   13    60    60
   14    34    34
   15   370   370
   16   304   304
   17    84    84
   18   495   495
   19   389   389
   20   243   243
   21     6     6
   22   400   400
   23   466   466
   24    32    32
   25   419   419
   26   112   112
   27   139   139
   28    35    35
   29   383   383
   30   336   336
   31    27    27
   32   309   309
   33   396   396
   34   235   235
   35   411   411
   36    99    99
   37   128   128
   38   427   427
   39   433   433
   40   466   466
   41   176   176
   42   454   454
   43   254   254
   44   280   280
   45   279   279
   46   177   177
   47    89    89
   48   329   329
   49   407   407
   50   370   370
6460
